language Essence 1.3

letting blksize_delta be
        function(1 --> 10, 2 --> 10, 3 --> 10, 4 --> 10, 5 --> 10, 6 --> 10, 7 --> 10, 8 --> 10, 9 --> 10, 10 --> 10,
                 11 --> 10, 12 --> 10, 13 --> 10, 14 --> 10, 15 --> 10, 16 --> 10, 17 --> 10, 18 --> 10, 19 --> 10,
                 20 --> 10, 21 --> 10, 22 --> 10, 23 --> 10, 24 --> 10, 25 --> 10, 26 --> 10, 27 --> 10, 28 --> 10,
                 29 --> 10, 30 --> 10, 31 --> 10, 32 --> 10, 33 --> 10, 34 --> 10, 35 --> 10, 36 --> 10, 37 --> 10)
letting maxcars be
        function(1 --> 8, 2 --> 8, 3 --> 8, 4 --> 8, 5 --> 8, 6 --> 9, 7 --> 8, 8 --> 8, 9 --> 8, 10 --> 8, 11 --> 8,
                 12 --> 8, 13 --> 8, 14 --> 9, 15 --> 8, 16 --> 8, 17 --> 8, 18 --> 8, 19 --> 8, 20 --> 8, 21 --> 8,
                 22 --> 9, 23 --> 8, 24 --> 8, 25 --> 8, 26 --> 8, 27 --> 8, 28 --> 8, 29 --> 8, 30 --> 8, 31 --> 8,
                 32 --> 8, 33 --> 10, 34 --> 8, 35 --> 8, 36 --> 8, 37 --> 8)
letting n_cars be 168
letting n_classes be 46
letting n_options be 37
letting quantity be
        function(1 --> 3, 2 --> 3, 3 --> 3, 4 --> 3, 5 --> 3, 6 --> 9, 7 --> 3, 8 --> 3, 9 --> 3, 10 --> 3, 11 --> 3,
                 12 --> 24, 13 --> 6, 14 --> 3, 15 --> 3, 16 --> 3, 17 --> 3, 18 --> 3, 19 --> 3, 20 --> 3, 21 --> 3,
                 22 --> 3, 23 --> 3, 24 --> 3, 25 --> 3, 26 --> 3, 27 --> 3, 28 --> 3, 29 --> 3, 30 --> 3, 31 --> 3,
                 32 --> 3, 33 --> 3, 34 --> 3, 35 --> 3, 36 --> 3, 37 --> 3, 38 --> 3, 39 --> 3, 40 --> 3, 41 --> 3,
                 42 --> 3, 43 --> 3, 44 --> 3, 45 --> 3, 46 --> 3)
letting usage be
        relation((1, 1), (1, 11), (1, 35), (2, 9), (2, 14), (3, 1), (3, 11), (3, 13), (3, 21), (3, 22), (3, 23), (4, 3),
                 (4, 8), (4, 18), (4, 21), (4, 22), (4, 26), (5, 5), (5, 35), (6, 4), (6, 16), (6, 17), (6, 19),
                 (7, 13), (7, 16), (7, 18), (8, 3), (8, 6), (8, 15), (8, 21), (9, 10), (9, 23), (9, 33), (9, 34),
                 (10, 8), (10, 11), (10, 12), (10, 24), (10, 27), (10, 29), (11, 37), (12, 2), (12, 6), (12, 9),
                 (12, 31), (13, 6), (13, 34), (14, 7), (14, 9), (14, 22), (14, 31), (15, 24), (15, 29), (15, 34),
                 (16, 7), (16, 30), (17, 1), (17, 15), (17, 27), (17, 37), (18, 14), (18, 24), (18, 30), (18, 31),
                 (18, 35), (19, 13), (19, 33), (20, 26), (20, 31), (20, 37), (21, 17), (21, 24), (21, 31), (22, 2),
                 (22, 7), (22, 12), (22, 22), (22, 31), (23, 2), (23, 5), (23, 7), (23, 11), (23, 15), (23, 19),
                 (23, 26), (23, 32), (23, 33), (24, 25), (24, 31), (25, 13), (25, 21), (25, 31), (25, 33), (26, 29),
                 (27, 15), (27, 35), (28, 1), (29, 37), (30, 1), (30, 5), (30, 18), (30, 22), (30, 28), (31, 37),
                 (32, 20), (32, 25), (33, 6), (33, 7), (33, 19), (33, 21), (33, 22), (33, 24), (33, 33), (34, 15),
                 (34, 27), (34, 31), (34, 35), (35, 11), (35, 23), (35, 36), (35, 37), (36, 5), (36, 19), (36, 26),
                 (36, 28), (36, 37), (37, 1), (37, 7), (37, 14), (37, 21), (37, 22), (37, 35), (38, 9), (38, 11),
                 (38, 37), (39, 7), (39, 11), (39, 23), (40, 17), (40, 18), (40, 28), (41, 7), (41, 22), (41, 25),
                 (41, 32), (42, 5), (42, 6), (42, 28), (42, 36), (43, 19), (43, 31), (43, 32), (44, 3), (44, 29),
                 (44, 30), (44, 31), (44, 34), (44, 35), (44, 36), (45, 5), (45, 6), (45, 10), (45, 15), (45, 20),
                 (45, 23), (45, 26), (45, 33), (46, 6))
$ Visualisation for usage
$  1  1
$  1 11
$  1 35
$  2  9
$  2 14
$  3  1
$  3 11
$  3 13
$  3 21
$  3 22
$  3 23
$  4  3
$  4  8
$  4 18
$  4 21
$  4 22
$  4 26
$  5  5
$  5 35
$  6  4
$  6 16
$  6 17
$  6 19
$  7 13
$  7 16
$  7 18
$  8  3
$  8  6
$  8 15
$  8 21
$  9 10
$  9 23
$  9 33
$  9 34
$ 10  8
$ 10 11
$ 10 12
$ 10 24
$ 10 27
$ 10 29
$ 11 37
$ 12  2
$ 12  6
$ 12  9
$ 12 31
$ 13  6
$ 13 34
$ 14  7
$ 14  9
$ 14 22
$ 14 31
$ 15 24
$ 15 29
$ 15 34
$ 16  7
$ 16 30
$ 17  1
$ 17 15
$ 17 27
$ 17 37
$ 18 14
$ 18 24
$ 18 30
$ 18 31
$ 18 35
$ 19 13
$ 19 33
$ 20 26
$ 20 31
$ 20 37
$ 21 17
$ 21 24
$ 21 31
$ 22  2
$ 22  7
$ 22 12
$ 22 22
$ 22 31
$ 23  2
$ 23  5
$ 23  7
$ 23 11
$ 23 15
$ 23 19
$ 23 26
$ 23 32
$ 23 33
$ 24 25
$ 24 31
$ 25 13
$ 25 21
$ 25 31
$ 25 33
$ 26 29
$ 27 15
$ 27 35
$ 28  1
$ 29 37
$ 30  1
$ 30  5
$ 30 18
$ 30 22
$ 30 28
$ 31 37
$ 32 20
$ 32 25
$ 33  6
$ 33  7
$ 33 19
$ 33 21
$ 33 22
$ 33 24
$ 33 33
$ 34 15
$ 34 27
$ 34 31
$ 34 35
$ 35 11
$ 35 23
$ 35 36
$ 35 37
$ 36  5
$ 36 19
$ 36 26
$ 36 28
$ 36 37
$ 37  1
$ 37  7
$ 37 14
$ 37 21
$ 37 22
$ 37 35
$ 38  9
$ 38 11
$ 38 37
$ 39  7
$ 39 11
$ 39 23
$ 40 17
$ 40 18
$ 40 28
$ 41  7
$ 41 22
$ 41 25
$ 41 32
$ 42  5
$ 42  6
$ 42 28
$ 42 36
$ 43 19
$ 43 31
$ 43 32
$ 44  3
$ 44 29
$ 44 30
$ 44 31
$ 44 34
$ 44 35
$ 44 36
$ 45  5
$ 45  6
$ 45 10
$ 45 15
$ 45 20
$ 45 23
$ 45 26
$ 45 33
$ 46  6

